\* US_Elections_2016 *\
Minimize
OBJ: u - v
Subject To
_C1: - 0.205621697201 alpha_1 + v <= 0
_C10: - 0.334644246395 alpha_4 + v <= 0
_C100: - 0.0985533550124 alpha_34 + v <= 0
_C101: 0.0985533550124 alpha_34 - u <= 0
_C102: alpha_1 + alpha_10 + alpha_11 + alpha_12 + alpha_13 + alpha_14
 + alpha_15 + alpha_16 + alpha_17 + alpha_18 + alpha_19 + alpha_2 + alpha_20
 + alpha_21 + alpha_22 + alpha_23 + alpha_24 + alpha_25 + alpha_26 + alpha_27
 + alpha_28 + alpha_29 + alpha_3 + alpha_30 + alpha_31 + alpha_32 + alpha_33
 + alpha_34 + alpha_35 + alpha_36 + alpha_37 + alpha_38 + alpha_39 + alpha_4
 + alpha_40 + alpha_41 + alpha_42 + alpha_43 + alpha_44 + alpha_45 + alpha_46
 + alpha_47 + alpha_48 + alpha_49 + alpha_5 + alpha_50 + alpha_51 + alpha_52
 + alpha_6 + alpha_7 + alpha_8 + alpha_9 = 538
_C103: - 1.31934476062 alpha_35 + v <= 0
_C104: 1.31934476062 alpha_35 - u <= 0
_C105: alpha_1 + alpha_10 + alpha_11 + alpha_12 + alpha_13 + alpha_14
 + alpha_15 + alpha_16 + alpha_17 + alpha_18 + alpha_19 + alpha_2 + alpha_20
 + alpha_21 + alpha_22 + alpha_23 + alpha_24 + alpha_25 + alpha_26 + alpha_27
 + alpha_28 + alpha_29 + alpha_3 + alpha_30 + alpha_31 + alpha_32 + alpha_33
 + alpha_34 + alpha_35 + alpha_36 + alpha_37 + alpha_38 + alpha_39 + alpha_4
 + alpha_40 + alpha_41 + alpha_42 + alpha_43 + alpha_44 + alpha_45 + alpha_46
 + alpha_47 + alpha_48 + alpha_49 + alpha_5 + alpha_50 + alpha_51 + alpha_52
 + alpha_6 + alpha_7 + alpha_8 + alpha_9 = 538
_C106: - 0.0861002139332 alpha_36 + v <= 0
_C107: 0.0861002139332 alpha_36 - u <= 0
_C108: alpha_1 + alpha_10 + alpha_11 + alpha_12 + alpha_13 + alpha_14
 + alpha_15 + alpha_16 + alpha_17 + alpha_18 + alpha_19 + alpha_2 + alpha_20
 + alpha_21 + alpha_22 + alpha_23 + alpha_24 + alpha_25 + alpha_26 + alpha_27
 + alpha_28 + alpha_29 + alpha_3 + alpha_30 + alpha_31 + alpha_32 + alpha_33
 + alpha_34 + alpha_35 + alpha_36 + alpha_37 + alpha_38 + alpha_39 + alpha_4
 + alpha_40 + alpha_41 + alpha_42 + alpha_43 + alpha_44 + alpha_45 + alpha_46
 + alpha_47 + alpha_48 + alpha_49 + alpha_5 + alpha_50 + alpha_51 + alpha_52
 + alpha_6 + alpha_7 + alpha_8 + alpha_9 = 538
_C109: - 0.254870511762 alpha_37 + v <= 0
_C11: 0.334644246395 alpha_4 - u <= 0
_C110: 0.254870511762 alpha_37 - u <= 0
_C111: alpha_1 + alpha_10 + alpha_11 + alpha_12 + alpha_13 + alpha_14
 + alpha_15 + alpha_16 + alpha_17 + alpha_18 + alpha_19 + alpha_2 + alpha_20
 + alpha_21 + alpha_22 + alpha_23 + alpha_24 + alpha_25 + alpha_26 + alpha_27
 + alpha_28 + alpha_29 + alpha_3 + alpha_30 + alpha_31 + alpha_32 + alpha_33
 + alpha_34 + alpha_35 + alpha_36 + alpha_37 + alpha_38 + alpha_39 + alpha_4
 + alpha_40 + alpha_41 + alpha_42 + alpha_43 + alpha_44 + alpha_45 + alpha_46
 + alpha_47 + alpha_48 + alpha_49 + alpha_5 + alpha_50 + alpha_51 + alpha_52
 + alpha_6 + alpha_7 + alpha_8 + alpha_9 = 538
_C112: - 0.244291816346 alpha_38 + v <= 0
_C113: 0.244291816346 alpha_38 - u <= 0
_C114: alpha_1 + alpha_10 + alpha_11 + alpha_12 + alpha_13 + alpha_14
 + alpha_15 + alpha_16 + alpha_17 + alpha_18 + alpha_19 + alpha_2 + alpha_20
 + alpha_21 + alpha_22 + alpha_23 + alpha_24 + alpha_25 + alpha_26 + alpha_27
 + alpha_28 + alpha_29 + alpha_3 + alpha_30 + alpha_31 + alpha_32 + alpha_33
 + alpha_34 + alpha_35 + alpha_36 + alpha_37 + alpha_38 + alpha_39 + alpha_4
 + alpha_40 + alpha_41 + alpha_42 + alpha_43 + alpha_44 + alpha_45 + alpha_46
 + alpha_47 + alpha_48 + alpha_49 + alpha_5 + alpha_50 + alpha_51 + alpha_52
 + alpha_6 + alpha_7 + alpha_8 + alpha_9 = 538
_C115: - 0.0782213895295 alpha_39 + v <= 0
_C116: 0.0782213895295 alpha_39 - u <= 0
_C117: alpha_1 + alpha_10 + alpha_11 + alpha_12 + alpha_13 + alpha_14
 + alpha_15 + alpha_16 + alpha_17 + alpha_18 + alpha_19 + alpha_2 + alpha_20
 + alpha_21 + alpha_22 + alpha_23 + alpha_24 + alpha_25 + alpha_26 + alpha_27
 + alpha_28 + alpha_29 + alpha_3 + alpha_30 + alpha_31 + alpha_32 + alpha_33
 + alpha_34 + alpha_35 + alpha_36 + alpha_37 + alpha_38 + alpha_39 + alpha_4
 + alpha_40 + alpha_41 + alpha_42 + alpha_43 + alpha_44 + alpha_45 + alpha_46
 + alpha_47 + alpha_48 + alpha_49 + alpha_5 + alpha_50 + alpha_51 + alpha_52
 + alpha_6 + alpha_7 + alpha_8 + alpha_9 = 538
_C118: - 0.946587834832 alpha_40 + v <= 0
_C119: 0.946587834832 alpha_40 - u <= 0
_C12: alpha_1 + alpha_10 + alpha_11 + alpha_12 + alpha_13 + alpha_14
 + alpha_15 + alpha_16 + alpha_17 + alpha_18 + alpha_19 + alpha_2 + alpha_20
 + alpha_21 + alpha_22 + alpha_23 + alpha_24 + alpha_25 + alpha_26 + alpha_27
 + alpha_28 + alpha_29 + alpha_3 + alpha_30 + alpha_31 + alpha_32 + alpha_33
 + alpha_34 + alpha_35 + alpha_36 + alpha_37 + alpha_38 + alpha_39 + alpha_4
 + alpha_40 + alpha_41 + alpha_42 + alpha_43 + alpha_44 + alpha_45 + alpha_46
 + alpha_47 + alpha_48 + alpha_49 + alpha_5 + alpha_50 + alpha_51 + alpha_52
 + alpha_6 + alpha_7 + alpha_8 + alpha_9 = 538
_C120: alpha_1 + alpha_10 + alpha_11 + alpha_12 + alpha_13 + alpha_14
 + alpha_15 + alpha_16 + alpha_17 + alpha_18 + alpha_19 + alpha_2 + alpha_20
 + alpha_21 + alpha_22 + alpha_23 + alpha_24 + alpha_25 + alpha_26 + alpha_27
 + alpha_28 + alpha_29 + alpha_3 + alpha_30 + alpha_31 + alpha_32 + alpha_33
 + alpha_34 + alpha_35 + alpha_36 + alpha_37 + alpha_38 + alpha_39 + alpha_4
 + alpha_40 + alpha_41 + alpha_42 + alpha_43 + alpha_44 + alpha_45 + alpha_46
 + alpha_47 + alpha_48 + alpha_49 + alpha_5 + alpha_50 + alpha_51 + alpha_52
 + alpha_6 + alpha_7 + alpha_8 + alpha_9 = 538
_C121: - 0.201567428639 alpha_41 + v <= 0
_C122: 0.201567428639 alpha_41 - u <= 0
_C123: alpha_1 + alpha_10 + alpha_11 + alpha_12 + alpha_13 + alpha_14
 + alpha_15 + alpha_16 + alpha_17 + alpha_18 + alpha_19 + alpha_2 + alpha_20
 + alpha_21 + alpha_22 + alpha_23 + alpha_24 + alpha_25 + alpha_26 + alpha_27
 + alpha_28 + alpha_29 + alpha_3 + alpha_30 + alpha_31 + alpha_32 + alpha_33
 + alpha_34 + alpha_35 + alpha_36 + alpha_37 + alpha_38 + alpha_39 + alpha_4
 + alpha_40 + alpha_41 + alpha_42 + alpha_43 + alpha_44 + alpha_45 + alpha_46
 + alpha_47 + alpha_48 + alpha_49 + alpha_5 + alpha_50 + alpha_51 + alpha_52
 + alpha_6 + alpha_7 + alpha_8 + alpha_9 = 538
_C124: - 1.15546291311 alpha_42 + v <= 0
_C125: 1.15546291311 alpha_42 - u <= 0
_C126: alpha_1 + alpha_10 + alpha_11 + alpha_12 + alpha_13 + alpha_14
 + alpha_15 + alpha_16 + alpha_17 + alpha_18 + alpha_19 + alpha_2 + alpha_20
 + alpha_21 + alpha_22 + alpha_23 + alpha_24 + alpha_25 + alpha_26 + alpha_27
 + alpha_28 + alpha_29 + alpha_3 + alpha_30 + alpha_31 + alpha_32 + alpha_33
 + alpha_34 + alpha_35 + alpha_36 + alpha_37 + alpha_38 + alpha_39 + alpha_4
 + alpha_40 + alpha_41 + alpha_42 + alpha_43 + alpha_44 + alpha_45 + alpha_46
 + alpha_47 + alpha_48 + alpha_49 + alpha_5 + alpha_50 + alpha_51 + alpha_52
 + alpha_6 + alpha_7 + alpha_8 + alpha_9 = 538
_C127: - 0.150348944866 alpha_43 + v <= 0
_C128: 0.150348944866 alpha_43 - u <= 0
_C129: alpha_1 + alpha_10 + alpha_11 + alpha_12 + alpha_13 + alpha_14
 + alpha_15 + alpha_16 + alpha_17 + alpha_18 + alpha_19 + alpha_2 + alpha_20
 + alpha_21 + alpha_22 + alpha_23 + alpha_24 + alpha_25 + alpha_26 + alpha_27
 + alpha_28 + alpha_29 + alpha_3 + alpha_30 + alpha_31 + alpha_32 + alpha_33
 + alpha_34 + alpha_35 + alpha_36 + alpha_37 + alpha_38 + alpha_39 + alpha_4
 + alpha_40 + alpha_41 + alpha_42 + alpha_43 + alpha_44 + alpha_45 + alpha_46
 + alpha_47 + alpha_48 + alpha_49 + alpha_5 + alpha_50 + alpha_51 + alpha_52
 + alpha_6 + alpha_7 + alpha_8 + alpha_9 = 538
_C13: - 0.0254776959714 alpha_5 + v <= 0
_C130: - 0.0358904102116 alpha_44 + v <= 0
_C131: 0.0358904102116 alpha_44 - u <= 0
_C132: alpha_1 + alpha_10 + alpha_11 + alpha_12 + alpha_13 + alpha_14
 + alpha_15 + alpha_16 + alpha_17 + alpha_18 + alpha_19 + alpha_2 + alpha_20
 + alpha_21 + alpha_22 + alpha_23 + alpha_24 + alpha_25 + alpha_26 + alpha_27
 + alpha_28 + alpha_29 + alpha_3 + alpha_30 + alpha_31 + alpha_32 + alpha_33
 + alpha_34 + alpha_35 + alpha_36 + alpha_37 + alpha_38 + alpha_39 + alpha_4
 + alpha_40 + alpha_41 + alpha_42 + alpha_43 + alpha_44 + alpha_45 + alpha_46
 + alpha_47 + alpha_48 + alpha_49 + alpha_5 + alpha_50 + alpha_51 + alpha_52
 + alpha_6 + alpha_7 + alpha_8 + alpha_9 = 538
_C133: - 0.327738079593 alpha_45 + v <= 0
_C134: 0.327738079593 alpha_45 - u <= 0
_C135: alpha_1 + alpha_10 + alpha_11 + alpha_12 + alpha_13 + alpha_14
 + alpha_15 + alpha_16 + alpha_17 + alpha_18 + alpha_19 + alpha_2 + alpha_20
 + alpha_21 + alpha_22 + alpha_23 + alpha_24 + alpha_25 + alpha_26 + alpha_27
 + alpha_28 + alpha_29 + alpha_3 + alpha_30 + alpha_31 + alpha_32 + alpha_33
 + alpha_34 + alpha_35 + alpha_36 + alpha_37 + alpha_38 + alpha_39 + alpha_4
 + alpha_40 + alpha_41 + alpha_42 + alpha_43 + alpha_44 + alpha_45 + alpha_46
 + alpha_47 + alpha_48 + alpha_49 + alpha_5 + alpha_50 + alpha_51 + alpha_52
 + alpha_6 + alpha_7 + alpha_8 + alpha_9 = 538
_C136: - 1.60104003561 alpha_46 + v <= 0
_C137: 1.60104003561 alpha_46 - u <= 0
_C138: alpha_1 + alpha_10 + alpha_11 + alpha_12 + alpha_13 + alpha_14
 + alpha_15 + alpha_16 + alpha_17 + alpha_18 + alpha_19 + alpha_2 + alpha_20
 + alpha_21 + alpha_22 + alpha_23 + alpha_24 + alpha_25 + alpha_26 + alpha_27
 + alpha_28 + alpha_29 + alpha_3 + alpha_30 + alpha_31 + alpha_32 + alpha_33
 + alpha_34 + alpha_35 + alpha_36 + alpha_37 + alpha_38 + alpha_39 + alpha_4
 + alpha_40 + alpha_41 + alpha_42 + alpha_43 + alpha_44 + alpha_45 + alpha_46
 + alpha_47 + alpha_48 + alpha_49 + alpha_5 + alpha_50 + alpha_51 + alpha_52
 + alpha_6 + alpha_7 + alpha_8 + alpha_9 = 538
_C139: - 0.118880507021 alpha_47 + v <= 0
_C14: 0.0254776959714 alpha_5 - u <= 0
_C140: 0.118880507021 alpha_47 - u <= 0
_C141: alpha_1 + alpha_10 + alpha_11 + alpha_12 + alpha_13 + alpha_14
 + alpha_15 + alpha_16 + alpha_17 + alpha_18 + alpha_19 + alpha_2 + alpha_20
 + alpha_21 + alpha_22 + alpha_23 + alpha_24 + alpha_25 + alpha_26 + alpha_27
 + alpha_28 + alpha_29 + alpha_3 + alpha_30 + alpha_31 + alpha_32 + alpha_33
 + alpha_34 + alpha_35 + alpha_36 + alpha_37 + alpha_38 + alpha_39 + alpha_4
 + alpha_40 + alpha_41 + alpha_42 + alpha_43 + alpha_44 + alpha_45 + alpha_46
 + alpha_47 + alpha_48 + alpha_49 + alpha_5 + alpha_50 + alpha_51 + alpha_52
 + alpha_6 + alpha_7 + alpha_8 + alpha_9 = 538
_C142: - 0.137211855104 alpha_48 + v <= 0
_C143: 0.137211855104 alpha_48 - u <= 0
_C144: alpha_1 + alpha_10 + alpha_11 + alpha_12 + alpha_13 + alpha_14
 + alpha_15 + alpha_16 + alpha_17 + alpha_18 + alpha_19 + alpha_2 + alpha_20
 + alpha_21 + alpha_22 + alpha_23 + alpha_24 + alpha_25 + alpha_26 + alpha_27
 + alpha_28 + alpha_29 + alpha_3 + alpha_30 + alpha_31 + alpha_32 + alpha_33
 + alpha_34 + alpha_35 + alpha_36 + alpha_37 + alpha_38 + alpha_39 + alpha_4
 + alpha_40 + alpha_41 + alpha_42 + alpha_43 + alpha_44 + alpha_45 + alpha_46
 + alpha_47 + alpha_48 + alpha_49 + alpha_5 + alpha_50 + alpha_51 + alpha_52
 + alpha_6 + alpha_7 + alpha_8 + alpha_9 = 538
_C145: - 0.546119222195 alpha_49 + v <= 0
_C146: 0.546119222195 alpha_49 - u <= 0
_C147: alpha_1 + alpha_10 + alpha_11 + alpha_12 + alpha_13 + alpha_14
 + alpha_15 + alpha_16 + alpha_17 + alpha_18 + alpha_19 + alpha_2 + alpha_20
 + alpha_21 + alpha_22 + alpha_23 + alpha_24 + alpha_25 + alpha_26 + alpha_27
 + alpha_28 + alpha_29 + alpha_3 + alpha_30 + alpha_31 + alpha_32 + alpha_33
 + alpha_34 + alpha_35 + alpha_36 + alpha_37 + alpha_38 + alpha_39 + alpha_4
 + alpha_40 + alpha_41 + alpha_42 + alpha_43 + alpha_44 + alpha_45 + alpha_46
 + alpha_47 + alpha_48 + alpha_49 + alpha_5 + alpha_50 + alpha_51 + alpha_52
 + alpha_6 + alpha_7 + alpha_8 + alpha_9 = 538
_C148: - 0.173049062178 alpha_50 + v <= 0
_C149: 0.173049062178 alpha_50 - u <= 0
_C15: alpha_1 + alpha_10 + alpha_11 + alpha_12 + alpha_13 + alpha_14
 + alpha_15 + alpha_16 + alpha_17 + alpha_18 + alpha_19 + alpha_2 + alpha_20
 + alpha_21 + alpha_22 + alpha_23 + alpha_24 + alpha_25 + alpha_26 + alpha_27
 + alpha_28 + alpha_29 + alpha_3 + alpha_30 + alpha_31 + alpha_32 + alpha_33
 + alpha_34 + alpha_35 + alpha_36 + alpha_37 + alpha_38 + alpha_39 + alpha_4
 + alpha_40 + alpha_41 + alpha_42 + alpha_43 + alpha_44 + alpha_45 + alpha_46
 + alpha_47 + alpha_48 + alpha_49 + alpha_5 + alpha_50 + alpha_51 + alpha_52
 + alpha_6 + alpha_7 + alpha_8 + alpha_9 = 538
_C150: alpha_1 + alpha_10 + alpha_11 + alpha_12 + alpha_13 + alpha_14
 + alpha_15 + alpha_16 + alpha_17 + alpha_18 + alpha_19 + alpha_2 + alpha_20
 + alpha_21 + alpha_22 + alpha_23 + alpha_24 + alpha_25 + alpha_26 + alpha_27
 + alpha_28 + alpha_29 + alpha_3 + alpha_30 + alpha_31 + alpha_32 + alpha_33
 + alpha_34 + alpha_35 + alpha_36 + alpha_37 + alpha_38 + alpha_39 + alpha_4
 + alpha_40 + alpha_41 + alpha_42 + alpha_43 + alpha_44 + alpha_45 + alpha_46
 + alpha_47 + alpha_48 + alpha_49 + alpha_5 + alpha_50 + alpha_51 + alpha_52
 + alpha_6 + alpha_7 + alpha_8 + alpha_9 = 538
_C151: - 1.70793901291 alpha_51 + v <= 0
_C152: 1.70793901291 alpha_51 - u <= 0
_C153: alpha_1 + alpha_10 + alpha_11 + alpha_12 + alpha_13 + alpha_14
 + alpha_15 + alpha_16 + alpha_17 + alpha_18 + alpha_19 + alpha_2 + alpha_20
 + alpha_21 + alpha_22 + alpha_23 + alpha_24 + alpha_25 + alpha_26 + alpha_27
 + alpha_28 + alpha_29 + alpha_3 + alpha_30 + alpha_31 + alpha_32 + alpha_33
 + alpha_34 + alpha_35 + alpha_36 + alpha_37 + alpha_38 + alpha_39 + alpha_4
 + alpha_40 + alpha_41 + alpha_42 + alpha_43 + alpha_44 + alpha_45 + alpha_46
 + alpha_47 + alpha_48 + alpha_49 + alpha_5 + alpha_50 + alpha_51 + alpha_52
 + alpha_6 + alpha_7 + alpha_8 + alpha_9 = 538
_C154: - 0.293142774895 alpha_52 + v <= 0
_C155: 0.293142774895 alpha_52 - u <= 0
_C156: alpha_1 + alpha_10 + alpha_11 + alpha_12 + alpha_13 + alpha_14
 + alpha_15 + alpha_16 + alpha_17 + alpha_18 + alpha_19 + alpha_2 + alpha_20
 + alpha_21 + alpha_22 + alpha_23 + alpha_24 + alpha_25 + alpha_26 + alpha_27
 + alpha_28 + alpha_29 + alpha_3 + alpha_30 + alpha_31 + alpha_32 + alpha_33
 + alpha_34 + alpha_35 + alpha_36 + alpha_37 + alpha_38 + alpha_39 + alpha_4
 + alpha_40 + alpha_41 + alpha_42 + alpha_43 + alpha_44 + alpha_45 + alpha_46
 + alpha_47 + alpha_48 + alpha_49 + alpha_5 + alpha_50 + alpha_51 + alpha_52
 + alpha_6 + alpha_7 + alpha_8 + alpha_9 = 538
_C16: - 0.180487659607 alpha_6 + v <= 0
_C17: 0.180487659607 alpha_6 - u <= 0
_C18: alpha_1 + alpha_10 + alpha_11 + alpha_12 + alpha_13 + alpha_14
 + alpha_15 + alpha_16 + alpha_17 + alpha_18 + alpha_19 + alpha_2 + alpha_20
 + alpha_21 + alpha_22 + alpha_23 + alpha_24 + alpha_25 + alpha_26 + alpha_27
 + alpha_28 + alpha_29 + alpha_3 + alpha_30 + alpha_31 + alpha_32 + alpha_33
 + alpha_34 + alpha_35 + alpha_36 + alpha_37 + alpha_38 + alpha_39 + alpha_4
 + alpha_40 + alpha_41 + alpha_42 + alpha_43 + alpha_44 + alpha_45 + alpha_46
 + alpha_47 + alpha_48 + alpha_49 + alpha_5 + alpha_50 + alpha_51 + alpha_52
 + alpha_6 + alpha_7 + alpha_8 + alpha_9 = 538
_C19: - 0.279606716377 alpha_7 + v <= 0
_C2: 0.205621697201 alpha_1 - u <= 0
_C20: 0.279606716377 alpha_7 - u <= 0
_C21: alpha_1 + alpha_10 + alpha_11 + alpha_12 + alpha_13 + alpha_14
 + alpha_15 + alpha_16 + alpha_17 + alpha_18 + alpha_19 + alpha_2 + alpha_20
 + alpha_21 + alpha_22 + alpha_23 + alpha_24 + alpha_25 + alpha_26 + alpha_27
 + alpha_28 + alpha_29 + alpha_3 + alpha_30 + alpha_31 + alpha_32 + alpha_33
 + alpha_34 + alpha_35 + alpha_36 + alpha_37 + alpha_38 + alpha_39 + alpha_4
 + alpha_40 + alpha_41 + alpha_42 + alpha_43 + alpha_44 + alpha_45 + alpha_46
 + alpha_47 + alpha_48 + alpha_49 + alpha_5 + alpha_50 + alpha_51 + alpha_52
 + alpha_6 + alpha_7 + alpha_8 + alpha_9 = 538
_C22: - 1.0503484531 alpha_8 + v <= 0
_C23: 1.0503484531 alpha_8 - u <= 0
_C24: alpha_1 + alpha_10 + alpha_11 + alpha_12 + alpha_13 + alpha_14
 + alpha_15 + alpha_16 + alpha_17 + alpha_18 + alpha_19 + alpha_2 + alpha_20
 + alpha_21 + alpha_22 + alpha_23 + alpha_24 + alpha_25 + alpha_26 + alpha_27
 + alpha_28 + alpha_29 + alpha_3 + alpha_30 + alpha_31 + alpha_32 + alpha_33
 + alpha_34 + alpha_35 + alpha_36 + alpha_37 + alpha_38 + alpha_39 + alpha_4
 + alpha_40 + alpha_41 + alpha_42 + alpha_43 + alpha_44 + alpha_45 + alpha_46
 + alpha_47 + alpha_48 + alpha_49 + alpha_5 + alpha_50 + alpha_51 + alpha_52
 + alpha_6 + alpha_7 + alpha_8 + alpha_9 = 538
_C25: - 1.46806230456 alpha_9 + v <= 0
_C26: 1.46806230456 alpha_9 - u <= 0
_C27: alpha_1 + alpha_10 + alpha_11 + alpha_12 + alpha_13 + alpha_14
 + alpha_15 + alpha_16 + alpha_17 + alpha_18 + alpha_19 + alpha_2 + alpha_20
 + alpha_21 + alpha_22 + alpha_23 + alpha_24 + alpha_25 + alpha_26 + alpha_27
 + alpha_28 + alpha_29 + alpha_3 + alpha_30 + alpha_31 + alpha_32 + alpha_33
 + alpha_34 + alpha_35 + alpha_36 + alpha_37 + alpha_38 + alpha_39 + alpha_4
 + alpha_40 + alpha_41 + alpha_42 + alpha_43 + alpha_44 + alpha_45 + alpha_46
 + alpha_47 + alpha_48 + alpha_49 + alpha_5 + alpha_50 + alpha_51 + alpha_52
 + alpha_6 + alpha_7 + alpha_8 + alpha_9 = 538
_C28: - 0.0485143946333 alpha_10 + v <= 0
_C29: 0.0485143946333 alpha_10 - u <= 0
_C3: alpha_1 + alpha_10 + alpha_11 + alpha_12 + alpha_13 + alpha_14 + alpha_15
 + alpha_16 + alpha_17 + alpha_18 + alpha_19 + alpha_2 + alpha_20 + alpha_21
 + alpha_22 + alpha_23 + alpha_24 + alpha_25 + alpha_26 + alpha_27 + alpha_28
 + alpha_29 + alpha_3 + alpha_30 + alpha_31 + alpha_32 + alpha_33 + alpha_34
 + alpha_35 + alpha_36 + alpha_37 + alpha_38 + alpha_39 + alpha_4 + alpha_40
 + alpha_41 + alpha_42 + alpha_43 + alpha_44 + alpha_45 + alpha_46 + alpha_47
 + alpha_48 + alpha_49 + alpha_5 + alpha_50 + alpha_51 + alpha_52 + alpha_6
 + alpha_7 + alpha_8 + alpha_9 = 538
_C30: alpha_1 + alpha_10 + alpha_11 + alpha_12 + alpha_13 + alpha_14
 + alpha_15 + alpha_16 + alpha_17 + alpha_18 + alpha_19 + alpha_2 + alpha_20
 + alpha_21 + alpha_22 + alpha_23 + alpha_24 + alpha_25 + alpha_26 + alpha_27
 + alpha_28 + alpha_29 + alpha_3 + alpha_30 + alpha_31 + alpha_32 + alpha_33
 + alpha_34 + alpha_35 + alpha_36 + alpha_37 + alpha_38 + alpha_39 + alpha_4
 + alpha_40 + alpha_41 + alpha_42 + alpha_43 + alpha_44 + alpha_45 + alpha_46
 + alpha_47 + alpha_48 + alpha_49 + alpha_5 + alpha_50 + alpha_51 + alpha_52
 + alpha_6 + alpha_7 + alpha_8 + alpha_9 = 538
_C31: - 0.0969897203505 alpha_11 + v <= 0
_C32: 0.0969897203505 alpha_11 - u <= 0
_C33: alpha_1 + alpha_10 + alpha_11 + alpha_12 + alpha_13 + alpha_14
 + alpha_15 + alpha_16 + alpha_17 + alpha_18 + alpha_19 + alpha_2 + alpha_20
 + alpha_21 + alpha_22 + alpha_23 + alpha_24 + alpha_25 + alpha_26 + alpha_27
 + alpha_28 + alpha_29 + alpha_3 + alpha_30 + alpha_31 + alpha_32 + alpha_33
 + alpha_34 + alpha_35 + alpha_36 + alpha_37 + alpha_38 + alpha_39 + alpha_4
 + alpha_40 + alpha_41 + alpha_42 + alpha_43 + alpha_44 + alpha_45 + alpha_46
 + alpha_47 + alpha_48 + alpha_49 + alpha_5 + alpha_50 + alpha_51 + alpha_52
 + alpha_6 + alpha_7 + alpha_8 + alpha_9 = 538
_C34: - 0.700007070071 alpha_12 + v <= 0
_C35: 0.700007070071 alpha_12 - u <= 0
_C36: alpha_1 + alpha_10 + alpha_11 + alpha_12 + alpha_13 + alpha_14
 + alpha_15 + alpha_16 + alpha_17 + alpha_18 + alpha_19 + alpha_2 + alpha_20
 + alpha_21 + alpha_22 + alpha_23 + alpha_24 + alpha_25 + alpha_26 + alpha_27
 + alpha_28 + alpha_29 + alpha_3 + alpha_30 + alpha_31 + alpha_32 + alpha_33
 + alpha_34 + alpha_35 + alpha_36 + alpha_37 + alpha_38 + alpha_39 + alpha_4
 + alpha_40 + alpha_41 + alpha_42 + alpha_43 + alpha_44 + alpha_45 + alpha_46
 + alpha_47 + alpha_48 + alpha_49 + alpha_5 + alpha_50 + alpha_51 + alpha_52
 + alpha_6 + alpha_7 + alpha_8 + alpha_9 = 538
_C37: - 0.594127642383 alpha_13 + v <= 0
_C38: 0.594127642383 alpha_13 - u <= 0
_C39: alpha_1 + alpha_10 + alpha_11 + alpha_12 + alpha_13 + alpha_14
 + alpha_15 + alpha_16 + alpha_17 + alpha_18 + alpha_19 + alpha_2 + alpha_20
 + alpha_21 + alpha_22 + alpha_23 + alpha_24 + alpha_25 + alpha_26 + alpha_27
 + alpha_28 + alpha_29 + alpha_3 + alpha_30 + alpha_31 + alpha_32 + alpha_33
 + alpha_34 + alpha_35 + alpha_36 + alpha_37 + alpha_38 + alpha_39 + alpha_4
 + alpha_40 + alpha_41 + alpha_42 + alpha_43 + alpha_44 + alpha_45 + alpha_46
 + alpha_47 + alpha_48 + alpha_49 + alpha_5 + alpha_50 + alpha_51 + alpha_52
 + alpha_6 + alpha_7 + alpha_8 + alpha_9 = 538
_C4: - 1.34790145223 alpha_2 + v <= 0
_C40: - 0.0781156078187 alpha_14 + v <= 0
_C41: 0.0781156078187 alpha_14 - u <= 0
_C42: alpha_1 + alpha_10 + alpha_11 + alpha_12 + alpha_13 + alpha_14
 + alpha_15 + alpha_16 + alpha_17 + alpha_18 + alpha_19 + alpha_2 + alpha_20
 + alpha_21 + alpha_22 + alpha_23 + alpha_24 + alpha_25 + alpha_26 + alpha_27
 + alpha_28 + alpha_29 + alpha_3 + alpha_30 + alpha_31 + alpha_32 + alpha_33
 + alpha_34 + alpha_35 + alpha_36 + alpha_37 + alpha_38 + alpha_39 + alpha_4
 + alpha_40 + alpha_41 + alpha_42 + alpha_43 + alpha_44 + alpha_45 + alpha_46
 + alpha_47 + alpha_48 + alpha_49 + alpha_5 + alpha_50 + alpha_51 + alpha_52
 + alpha_6 + alpha_7 + alpha_8 + alpha_9 = 538
_C43: - 0.150760140165 alpha_15 + v <= 0
_C44: 0.150760140165 alpha_15 - u <= 0
_C45: alpha_1 + alpha_10 + alpha_11 + alpha_12 + alpha_13 + alpha_14
 + alpha_15 + alpha_16 + alpha_17 + alpha_18 + alpha_19 + alpha_2 + alpha_20
 + alpha_21 + alpha_22 + alpha_23 + alpha_24 + alpha_25 + alpha_26 + alpha_27
 + alpha_28 + alpha_29 + alpha_3 + alpha_30 + alpha_31 + alpha_32 + alpha_33
 + alpha_34 + alpha_35 + alpha_36 + alpha_37 + alpha_38 + alpha_39 + alpha_4
 + alpha_40 + alpha_41 + alpha_42 + alpha_43 + alpha_44 + alpha_45 + alpha_46
 + alpha_47 + alpha_48 + alpha_49 + alpha_5 + alpha_50 + alpha_51 + alpha_52
 + alpha_6 + alpha_7 + alpha_8 + alpha_9 = 538
_C46: - 0.319010505973 alpha_16 + v <= 0
_C47: 0.319010505973 alpha_16 - u <= 0
_C48: alpha_1 + alpha_10 + alpha_11 + alpha_12 + alpha_13 + alpha_14
 + alpha_15 + alpha_16 + alpha_17 + alpha_18 + alpha_19 + alpha_2 + alpha_20
 + alpha_21 + alpha_22 + alpha_23 + alpha_24 + alpha_25 + alpha_26 + alpha_27
 + alpha_28 + alpha_29 + alpha_3 + alpha_30 + alpha_31 + alpha_32 + alpha_33
 + alpha_34 + alpha_35 + alpha_36 + alpha_37 + alpha_38 + alpha_39 + alpha_4
 + alpha_40 + alpha_41 + alpha_42 + alpha_43 + alpha_44 + alpha_45 + alpha_46
 + alpha_47 + alpha_48 + alpha_49 + alpha_5 + alpha_50 + alpha_51 + alpha_52
 + alpha_6 + alpha_7 + alpha_8 + alpha_9 = 538
_C49: - 0.343963052865 alpha_17 + v <= 0
_C5: 1.34790145223 alpha_2 - u <= 0
_C50: 0.343963052865 alpha_17 - u <= 0
_C51: alpha_1 + alpha_10 + alpha_11 + alpha_12 + alpha_13 + alpha_14
 + alpha_15 + alpha_16 + alpha_17 + alpha_18 + alpha_19 + alpha_2 + alpha_20
 + alpha_21 + alpha_22 + alpha_23 + alpha_24 + alpha_25 + alpha_26 + alpha_27
 + alpha_28 + alpha_29 + alpha_3 + alpha_30 + alpha_31 + alpha_32 + alpha_33
 + alpha_34 + alpha_35 + alpha_36 + alpha_37 + alpha_38 + alpha_39 + alpha_4
 + alpha_40 + alpha_41 + alpha_42 + alpha_43 + alpha_44 + alpha_45 + alpha_46
 + alpha_47 + alpha_48 + alpha_49 + alpha_5 + alpha_50 + alpha_51 + alpha_52
 + alpha_6 + alpha_7 + alpha_8 + alpha_9 = 538
_C52: - 0.225378828003 alpha_18 + v <= 0
_C53: 0.225378828003 alpha_18 - u <= 0
_C54: alpha_1 + alpha_10 + alpha_11 + alpha_12 + alpha_13 + alpha_14
 + alpha_15 + alpha_16 + alpha_17 + alpha_18 + alpha_19 + alpha_2 + alpha_20
 + alpha_21 + alpha_22 + alpha_23 + alpha_24 + alpha_25 + alpha_26 + alpha_27
 + alpha_28 + alpha_29 + alpha_3 + alpha_30 + alpha_31 + alpha_32 + alpha_33
 + alpha_34 + alpha_35 + alpha_36 + alpha_37 + alpha_38 + alpha_39 + alpha_4
 + alpha_40 + alpha_41 + alpha_42 + alpha_43 + alpha_44 + alpha_45 + alpha_46
 + alpha_47 + alpha_48 + alpha_49 + alpha_5 + alpha_50 + alpha_51 + alpha_52
 + alpha_6 + alpha_7 + alpha_8 + alpha_9 = 538
_C55: - 0.21359917602 alpha_19 + v <= 0
_C56: 0.21359917602 alpha_19 - u <= 0
_C57: alpha_1 + alpha_10 + alpha_11 + alpha_12 + alpha_13 + alpha_14
 + alpha_15 + alpha_16 + alpha_17 + alpha_18 + alpha_19 + alpha_2 + alpha_20
 + alpha_21 + alpha_22 + alpha_23 + alpha_24 + alpha_25 + alpha_26 + alpha_27
 + alpha_28 + alpha_29 + alpha_3 + alpha_30 + alpha_31 + alpha_32 + alpha_33
 + alpha_34 + alpha_35 + alpha_36 + alpha_37 + alpha_38 + alpha_39 + alpha_4
 + alpha_40 + alpha_41 + alpha_42 + alpha_43 + alpha_44 + alpha_45 + alpha_46
 + alpha_47 + alpha_48 + alpha_49 + alpha_5 + alpha_50 + alpha_51 + alpha_52
 + alpha_6 + alpha_7 + alpha_8 + alpha_9 = 538
_C58: - 0.751044515159 alpha_20 + v <= 0
_C59: 0.751044515159 alpha_20 - u <= 0
_C6: alpha_1 + alpha_10 + alpha_11 + alpha_12 + alpha_13 + alpha_14 + alpha_15
 + alpha_16 + alpha_17 + alpha_18 + alpha_19 + alpha_2 + alpha_20 + alpha_21
 + alpha_22 + alpha_23 + alpha_24 + alpha_25 + alpha_26 + alpha_27 + alpha_28
 + alpha_29 + alpha_3 + alpha_30 + alpha_31 + alpha_32 + alpha_33 + alpha_34
 + alpha_35 + alpha_36 + alpha_37 + alpha_38 + alpha_39 + alpha_4 + alpha_40
 + alpha_41 + alpha_42 + alpha_43 + alpha_44 + alpha_45 + alpha_46 + alpha_47
 + alpha_48 + alpha_49 + alpha_5 + alpha_50 + alpha_51 + alpha_52 + alpha_6
 + alpha_7 + alpha_8 + alpha_9 = 538
_C60: alpha_1 + alpha_10 + alpha_11 + alpha_12 + alpha_13 + alpha_14
 + alpha_15 + alpha_16 + alpha_17 + alpha_18 + alpha_19 + alpha_2 + alpha_20
 + alpha_21 + alpha_22 + alpha_23 + alpha_24 + alpha_25 + alpha_26 + alpha_27
 + alpha_28 + alpha_29 + alpha_3 + alpha_30 + alpha_31 + alpha_32 + alpha_33
 + alpha_34 + alpha_35 + alpha_36 + alpha_37 + alpha_38 + alpha_39 + alpha_4
 + alpha_40 + alpha_41 + alpha_42 + alpha_43 + alpha_44 + alpha_45 + alpha_46
 + alpha_47 + alpha_48 + alpha_49 + alpha_5 + alpha_50 + alpha_51 + alpha_52
 + alpha_6 + alpha_7 + alpha_8 + alpha_9 = 538
_C61: - 0.166211054465 alpha_21 + v <= 0
_C62: 0.166211054465 alpha_21 - u <= 0
_C63: alpha_1 + alpha_10 + alpha_11 + alpha_12 + alpha_13 + alpha_14
 + alpha_15 + alpha_16 + alpha_17 + alpha_18 + alpha_19 + alpha_2 + alpha_20
 + alpha_21 + alpha_22 + alpha_23 + alpha_24 + alpha_25 + alpha_26 + alpha_27
 + alpha_28 + alpha_29 + alpha_3 + alpha_30 + alpha_31 + alpha_32 + alpha_33
 + alpha_34 + alpha_35 + alpha_36 + alpha_37 + alpha_38 + alpha_39 + alpha_4
 + alpha_40 + alpha_41 + alpha_42 + alpha_43 + alpha_44 + alpha_45 + alpha_46
 + alpha_47 + alpha_48 + alpha_49 + alpha_5 + alpha_50 + alpha_51 + alpha_52
 + alpha_6 + alpha_7 + alpha_8 + alpha_9 = 538
_C64: - 0.146804527863 alpha_22 + v <= 0
_C65: 0.146804527863 alpha_22 - u <= 0
_C66: alpha_1 + alpha_10 + alpha_11 + alpha_12 + alpha_13 + alpha_14
 + alpha_15 + alpha_16 + alpha_17 + alpha_18 + alpha_19 + alpha_2 + alpha_20
 + alpha_21 + alpha_22 + alpha_23 + alpha_24 + alpha_25 + alpha_26 + alpha_27
 + alpha_28 + alpha_29 + alpha_3 + alpha_30 + alpha_31 + alpha_32 + alpha_33
 + alpha_34 + alpha_35 + alpha_36 + alpha_37 + alpha_38 + alpha_39 + alpha_4
 + alpha_40 + alpha_41 + alpha_42 + alpha_43 + alpha_44 + alpha_45 + alpha_46
 + alpha_47 + alpha_48 + alpha_49 + alpha_5 + alpha_50 + alpha_51 + alpha_52
 + alpha_6 + alpha_7 + alpha_8 + alpha_9 = 538
_C67: - 0.100722178016 alpha_23 + v <= 0
_C68: 0.100722178016 alpha_23 - u <= 0
_C69: alpha_1 + alpha_10 + alpha_11 + alpha_12 + alpha_13 + alpha_14
 + alpha_15 + alpha_16 + alpha_17 + alpha_18 + alpha_19 + alpha_2 + alpha_20
 + alpha_21 + alpha_22 + alpha_23 + alpha_24 + alpha_25 + alpha_26 + alpha_27
 + alpha_28 + alpha_29 + alpha_3 + alpha_30 + alpha_31 + alpha_32 + alpha_33
 + alpha_34 + alpha_35 + alpha_36 + alpha_37 + alpha_38 + alpha_39 + alpha_4
 + alpha_40 + alpha_41 + alpha_42 + alpha_43 + alpha_44 + alpha_45 + alpha_46
 + alpha_47 + alpha_48 + alpha_49 + alpha_5 + alpha_50 + alpha_51 + alpha_52
 + alpha_6 + alpha_7 + alpha_8 + alpha_9 = 538
_C7: - 0.144277846815 alpha_3 + v <= 0
_C70: - 0.181160995603 alpha_24 + v <= 0
_C71: 0.181160995603 alpha_24 - u <= 0
_C72: alpha_1 + alpha_10 + alpha_11 + alpha_12 + alpha_13 + alpha_14
 + alpha_15 + alpha_16 + alpha_17 + alpha_18 + alpha_19 + alpha_2 + alpha_20
 + alpha_21 + alpha_22 + alpha_23 + alpha_24 + alpha_25 + alpha_26 + alpha_27
 + alpha_28 + alpha_29 + alpha_3 + alpha_30 + alpha_31 + alpha_32 + alpha_33
 + alpha_34 + alpha_35 + alpha_36 + alpha_37 + alpha_38 + alpha_39 + alpha_4
 + alpha_40 + alpha_41 + alpha_42 + alpha_43 + alpha_44 + alpha_45 + alpha_46
 + alpha_47 + alpha_48 + alpha_49 + alpha_5 + alpha_50 + alpha_51 + alpha_52
 + alpha_6 + alpha_7 + alpha_8 + alpha_9 = 538
_C73: - 0.334590725279 alpha_25 + v <= 0
_C74: 0.334590725279 alpha_25 - u <= 0
_C75: alpha_1 + alpha_10 + alpha_11 + alpha_12 + alpha_13 + alpha_14
 + alpha_15 + alpha_16 + alpha_17 + alpha_18 + alpha_19 + alpha_2 + alpha_20
 + alpha_21 + alpha_22 + alpha_23 + alpha_24 + alpha_25 + alpha_26 + alpha_27
 + alpha_28 + alpha_29 + alpha_3 + alpha_30 + alpha_31 + alpha_32 + alpha_33
 + alpha_34 + alpha_35 + alpha_36 + alpha_37 + alpha_38 + alpha_39 + alpha_4
 + alpha_40 + alpha_41 + alpha_42 + alpha_43 + alpha_44 + alpha_45 + alpha_46
 + alpha_47 + alpha_48 + alpha_49 + alpha_5 + alpha_50 + alpha_51 + alpha_52
 + alpha_6 + alpha_7 + alpha_8 + alpha_9 = 538
_C76: - 0.164122763827 alpha_26 + v <= 0
_C77: 0.164122763827 alpha_26 - u <= 0
_C78: alpha_1 + alpha_10 + alpha_11 + alpha_12 + alpha_13 + alpha_14
 + alpha_15 + alpha_16 + alpha_17 + alpha_18 + alpha_19 + alpha_2 + alpha_20
 + alpha_21 + alpha_22 + alpha_23 + alpha_24 + alpha_25 + alpha_26 + alpha_27
 + alpha_28 + alpha_29 + alpha_3 + alpha_30 + alpha_31 + alpha_32 + alpha_33
 + alpha_34 + alpha_35 + alpha_36 + alpha_37 + alpha_38 + alpha_39 + alpha_4
 + alpha_40 + alpha_41 + alpha_42 + alpha_43 + alpha_44 + alpha_45 + alpha_46
 + alpha_47 + alpha_48 + alpha_49 + alpha_5 + alpha_50 + alpha_51 + alpha_52
 + alpha_6 + alpha_7 + alpha_8 + alpha_9 = 538
_C79: - 0.959214211718 alpha_27 + v <= 0
_C8: 0.144277846815 alpha_3 - u <= 0
_C80: 0.959214211718 alpha_27 - u <= 0
_C81: alpha_1 + alpha_10 + alpha_11 + alpha_12 + alpha_13 + alpha_14
 + alpha_15 + alpha_16 + alpha_17 + alpha_18 + alpha_19 + alpha_2 + alpha_20
 + alpha_21 + alpha_22 + alpha_23 + alpha_24 + alpha_25 + alpha_26 + alpha_27
 + alpha_28 + alpha_29 + alpha_3 + alpha_30 + alpha_31 + alpha_32 + alpha_33
 + alpha_34 + alpha_35 + alpha_36 + alpha_37 + alpha_38 + alpha_39 + alpha_4
 + alpha_40 + alpha_41 + alpha_42 + alpha_43 + alpha_44 + alpha_45 + alpha_46
 + alpha_47 + alpha_48 + alpha_49 + alpha_5 + alpha_50 + alpha_51 + alpha_52
 + alpha_6 + alpha_7 + alpha_8 + alpha_9 = 538
_C82: - 0.524351953421 alpha_28 + v <= 0
_C83: 0.524351953421 alpha_28 - u <= 0
_C84: alpha_1 + alpha_10 + alpha_11 + alpha_12 + alpha_13 + alpha_14
 + alpha_15 + alpha_16 + alpha_17 + alpha_18 + alpha_19 + alpha_2 + alpha_20
 + alpha_21 + alpha_22 + alpha_23 + alpha_24 + alpha_25 + alpha_26 + alpha_27
 + alpha_28 + alpha_29 + alpha_3 + alpha_30 + alpha_31 + alpha_32 + alpha_33
 + alpha_34 + alpha_35 + alpha_36 + alpha_37 + alpha_38 + alpha_39 + alpha_4
 + alpha_40 + alpha_41 + alpha_42 + alpha_43 + alpha_44 + alpha_45 + alpha_46
 + alpha_47 + alpha_48 + alpha_49 + alpha_5 + alpha_50 + alpha_51 + alpha_52
 + alpha_6 + alpha_7 + alpha_8 + alpha_9 = 538
_C85: - 0.340129344387 alpha_29 + v <= 0
_C86: 0.340129344387 alpha_29 - u <= 0
_C87: alpha_1 + alpha_10 + alpha_11 + alpha_12 + alpha_13 + alpha_14
 + alpha_15 + alpha_16 + alpha_17 + alpha_18 + alpha_19 + alpha_2 + alpha_20
 + alpha_21 + alpha_22 + alpha_23 + alpha_24 + alpha_25 + alpha_26 + alpha_27
 + alpha_28 + alpha_29 + alpha_3 + alpha_30 + alpha_31 + alpha_32 + alpha_33
 + alpha_34 + alpha_35 + alpha_36 + alpha_37 + alpha_38 + alpha_39 + alpha_4
 + alpha_40 + alpha_41 + alpha_42 + alpha_43 + alpha_44 + alpha_45 + alpha_46
 + alpha_47 + alpha_48 + alpha_49 + alpha_5 + alpha_50 + alpha_51 + alpha_52
 + alpha_6 + alpha_7 + alpha_8 + alpha_9 = 538
_C88: - 0.749178712836 alpha_30 + v <= 0
_C89: 0.749178712836 alpha_30 - u <= 0
_C9: alpha_1 + alpha_10 + alpha_11 + alpha_12 + alpha_13 + alpha_14 + alpha_15
 + alpha_16 + alpha_17 + alpha_18 + alpha_19 + alpha_2 + alpha_20 + alpha_21
 + alpha_22 + alpha_23 + alpha_24 + alpha_25 + alpha_26 + alpha_27 + alpha_28
 + alpha_29 + alpha_3 + alpha_30 + alpha_31 + alpha_32 + alpha_33 + alpha_34
 + alpha_35 + alpha_36 + alpha_37 + alpha_38 + alpha_39 + alpha_4 + alpha_40
 + alpha_41 + alpha_42 + alpha_43 + alpha_44 + alpha_45 + alpha_46 + alpha_47
 + alpha_48 + alpha_49 + alpha_5 + alpha_50 + alpha_51 + alpha_52 + alpha_6
 + alpha_7 + alpha_8 + alpha_9 = 538
_C90: alpha_1 + alpha_10 + alpha_11 + alpha_12 + alpha_13 + alpha_14
 + alpha_15 + alpha_16 + alpha_17 + alpha_18 + alpha_19 + alpha_2 + alpha_20
 + alpha_21 + alpha_22 + alpha_23 + alpha_24 + alpha_25 + alpha_26 + alpha_27
 + alpha_28 + alpha_29 + alpha_3 + alpha_30 + alpha_31 + alpha_32 + alpha_33
 + alpha_34 + alpha_35 + alpha_36 + alpha_37 + alpha_38 + alpha_39 + alpha_4
 + alpha_40 + alpha_41 + alpha_42 + alpha_43 + alpha_44 + alpha_45 + alpha_46
 + alpha_47 + alpha_48 + alpha_49 + alpha_5 + alpha_50 + alpha_51 + alpha_52
 + alpha_6 + alpha_7 + alpha_8 + alpha_9 = 538
_C91: - 0.111800935304 alpha_31 + v <= 0
_C92: 0.111800935304 alpha_31 - u <= 0
_C93: alpha_1 + alpha_10 + alpha_11 + alpha_12 + alpha_13 + alpha_14
 + alpha_15 + alpha_16 + alpha_17 + alpha_18 + alpha_19 + alpha_2 + alpha_20
 + alpha_21 + alpha_22 + alpha_23 + alpha_24 + alpha_25 + alpha_26 + alpha_27
 + alpha_28 + alpha_29 + alpha_3 + alpha_30 + alpha_31 + alpha_32 + alpha_33
 + alpha_34 + alpha_35 + alpha_36 + alpha_37 + alpha_38 + alpha_39 + alpha_4
 + alpha_40 + alpha_41 + alpha_42 + alpha_43 + alpha_44 + alpha_45 + alpha_46
 + alpha_47 + alpha_48 + alpha_49 + alpha_5 + alpha_50 + alpha_51 + alpha_52
 + alpha_6 + alpha_7 + alpha_8 + alpha_9 = 538
_C94: - 0.480534739058 alpha_32 + v <= 0
_C95: 0.480534739058 alpha_32 - u <= 0
_C96: alpha_1 + alpha_10 + alpha_11 + alpha_12 + alpha_13 + alpha_14
 + alpha_15 + alpha_16 + alpha_17 + alpha_18 + alpha_19 + alpha_2 + alpha_20
 + alpha_21 + alpha_22 + alpha_23 + alpha_24 + alpha_25 + alpha_26 + alpha_27
 + alpha_28 + alpha_29 + alpha_3 + alpha_30 + alpha_31 + alpha_32 + alpha_33
 + alpha_34 + alpha_35 + alpha_36 + alpha_37 + alpha_38 + alpha_39 + alpha_4
 + alpha_40 + alpha_41 + alpha_42 + alpha_43 + alpha_44 + alpha_45 + alpha_46
 + alpha_47 + alpha_48 + alpha_49 + alpha_5 + alpha_50 + alpha_51 + alpha_52
 + alpha_6 + alpha_7 + alpha_8 + alpha_9 = 538
_C97: - 0.0506449918256 alpha_33 + v <= 0
_C98: 0.0506449918256 alpha_33 - u <= 0
_C99: alpha_1 + alpha_10 + alpha_11 + alpha_12 + alpha_13 + alpha_14
 + alpha_15 + alpha_16 + alpha_17 + alpha_18 + alpha_19 + alpha_2 + alpha_20
 + alpha_21 + alpha_22 + alpha_23 + alpha_24 + alpha_25 + alpha_26 + alpha_27
 + alpha_28 + alpha_29 + alpha_3 + alpha_30 + alpha_31 + alpha_32 + alpha_33
 + alpha_34 + alpha_35 + alpha_36 + alpha_37 + alpha_38 + alpha_39 + alpha_4
 + alpha_40 + alpha_41 + alpha_42 + alpha_43 + alpha_44 + alpha_45 + alpha_46
 + alpha_47 + alpha_48 + alpha_49 + alpha_5 + alpha_50 + alpha_51 + alpha_52
 + alpha_6 + alpha_7 + alpha_8 + alpha_9 = 538
Bounds
0 <= alpha_1
0 <= alpha_10
0 <= alpha_11
0 <= alpha_12
0 <= alpha_13
0 <= alpha_14
0 <= alpha_15
0 <= alpha_16
0 <= alpha_17
0 <= alpha_18
0 <= alpha_19
0 <= alpha_2
0 <= alpha_20
0 <= alpha_21
0 <= alpha_22
0 <= alpha_23
0 <= alpha_24
0 <= alpha_25
0 <= alpha_26
0 <= alpha_27
0 <= alpha_28
0 <= alpha_29
0 <= alpha_3
0 <= alpha_30
0 <= alpha_31
0 <= alpha_32
0 <= alpha_33
0 <= alpha_34
0 <= alpha_35
0 <= alpha_36
0 <= alpha_37
0 <= alpha_38
0 <= alpha_39
0 <= alpha_4
0 <= alpha_40
0 <= alpha_41
0 <= alpha_42
0 <= alpha_43
0 <= alpha_44
0 <= alpha_45
0 <= alpha_46
0 <= alpha_47
0 <= alpha_48
0 <= alpha_49
0 <= alpha_5
0 <= alpha_50
0 <= alpha_51
0 <= alpha_52
0 <= alpha_6
0 <= alpha_7
0 <= alpha_8
0 <= alpha_9
Generals
alpha_1
alpha_10
alpha_11
alpha_12
alpha_13
alpha_14
alpha_15
alpha_16
alpha_17
alpha_18
alpha_19
alpha_2
alpha_20
alpha_21
alpha_22
alpha_23
alpha_24
alpha_25
alpha_26
alpha_27
alpha_28
alpha_29
alpha_3
alpha_30
alpha_31
alpha_32
alpha_33
alpha_34
alpha_35
alpha_36
alpha_37
alpha_38
alpha_39
alpha_4
alpha_40
alpha_41
alpha_42
alpha_43
alpha_44
alpha_45
alpha_46
alpha_47
alpha_48
alpha_49
alpha_5
alpha_50
alpha_51
alpha_52
alpha_6
alpha_7
alpha_8
alpha_9
End
